p cnf 219 483
1 0
2 0
3 0
4 0
5 0
6 0
7 0
8 0
9 0
10 0
-11 0
-12 0
-13 0
-14 0
-15 0
-16 0
-17 0
-18 0
-19 0
-20 0
1 -21 0
-1 21 0
2 -22 0
-2 22 0
3 -23 0
-3 23 0
4 -24 0
-4 24 0
5 -25 0
-5 25 0
6 -26 0
-6 26 0
7 -27 0
-7 27 0
8 -28 0
-8 28 0
9 -29 0
-9 29 0
10 -30 0
-10 30 0
31 32 0
33 32 0
-31 -33 -32 0
-11 32 -34 0
11 -32 -34 0
34 -32 -11 0
11 32 34 0
-34 0
35 36 0
37 36 0
-35 -37 -36 0
-31 36 -38 0
31 -36 -38 0
38 -36 -31 0
31 36 38 0
-38 0
35 -39 0
-35 39 0
40 41 0
42 41 0
-40 -42 -41 0
-12 41 -43 0
12 -41 -43 0
43 -41 -12 0
12 41 43 0
-43 0
44 45 0
46 45 0
-44 -46 -45 0
-40 45 -47 0
40 -45 -47 0
47 -45 -40 0
40 45 47 0
-47 0
42 48 0
46 48 0
49 48 0
-49 -42 -46 -48 0
-44 48 -50 0
44 -48 -50 0
50 -48 -44 0
44 48 50 0
-50 0
51 52 0
53 52 0
-51 -53 -52 0
-13 52 -54 0
13 -52 -54 0
54 -52 -13 0
13 52 54 0
-54 0
55 56 0
57 56 0
-55 -57 -56 0
-51 56 -58 0
51 -56 -58 0
58 -56 -51 0
51 56 58 0
-58 0
59 60 0
61 60 0
-59 -61 -60 0
-55 60 -62 0
55 -60 -62 0
62 -60 -55 0
55 60 62 0
-62 0
57 63 0
61 63 0
64 63 0
-57 -61 -64 -63 0
-59 63 -65 0
59 -63 -65 0
65 -63 -59 0
59 63 65 0
-65 0
66 67 0
68 67 0
-66 -68 -67 0
-14 67 -69 0
14 -67 -69 0
69 -67 -14 0
14 67 69 0
-69 0
70 71 0
72 71 0
-70 -72 -71 0
-66 71 -73 0
66 -71 -73 0
73 -71 -66 0
66 71 73 0
-73 0
74 75 0
76 75 0
-74 -76 -75 0
-70 75 -77 0
70 -75 -77 0
77 -75 -70 0
70 75 77 0
-77 0
76 78 0
79 78 0
-76 -79 -78 0
-74 78 -80 0
74 -78 -80 0
80 -78 -74 0
74 78 80 0
-80 0
81 82 0
83 82 0
-81 -83 -82 0
-15 82 -84 0
15 -82 -84 0
84 -82 -15 0
15 82 84 0
-84 0
85 86 0
87 86 0
-85 -87 -86 0
-81 86 -88 0
81 -86 -88 0
88 -86 -81 0
81 86 88 0
-88 0
89 90 0
91 90 0
-89 -91 -90 0
-85 90 -92 0
85 -90 -92 0
92 -90 -85 0
85 90 92 0
-92 0
93 94 0
95 94 0
-93 -95 -94 0
-89 94 -96 0
89 -94 -96 0
96 -94 -89 0
89 94 96 0
-96 0
97 98 0
99 98 0
-97 -99 -98 0
-93 98 -100 0
93 -98 -100 0
100 -98 -93 0
93 98 100 0
-100 0
101 102 0
103 102 0
-101 -103 -102 0
-97 102 -104 0
97 -102 -104 0
104 -102 -97 0
97 102 104 0
-104 0
105 106 0
107 106 0
-105 -107 -106 0
-101 106 -108 0
101 -106 -108 0
108 -106 -101 0
101 106 108 0
-108 0
99 109 0
103 109 0
107 109 0
110 109 0
-111 0
-105 109 -112 0
105 -109 -112 0
112 -109 -105 0
105 109 112 0
-112 0
113 114 0
115 114 0
-113 -115 -114 0
-16 114 -116 0
16 -114 -116 0
116 -114 -16 0
16 114 116 0
-116 0
117 118 0
119 118 0
-117 -119 -118 0
-113 118 -120 0
113 -118 -120 0
120 -118 -113 0
113 118 120 0
-120 0
121 122 0
123 122 0
-121 -123 -122 0
-117 122 -124 0
117 -122 -124 0
124 -122 -117 0
117 122 124 0
-124 0
125 126 0
127 126 0
-125 -127 -126 0
-121 126 -128 0
121 -126 -128 0
128 -126 -121 0
121 126 128 0
-128 0
129 130 0
131 130 0
-129 -131 -130 0
-125 130 -132 0
125 -130 -132 0
132 -130 -125 0
125 130 132 0
-132 0
123 133 0
127 133 0
131 133 0
134 133 0
-135 0
-129 133 -136 0
129 -133 -136 0
136 -133 -129 0
129 133 136 0
-136 0
137 138 0
139 138 0
-137 -139 -138 0
-17 138 -140 0
17 -138 -140 0
140 -138 -17 0
17 138 140 0
-140 0
141 142 0
143 142 0
-141 -143 -142 0
-137 142 -144 0
137 -142 -144 0
144 -142 -137 0
137 142 144 0
-144 0
145 146 0
147 146 0
-145 -147 -146 0
-141 146 -148 0
141 -146 -148 0
148 -146 -141 0
141 146 148 0
-148 0
149 150 0
151 150 0
-149 -151 -150 0
-145 150 -152 0
145 -150 -152 0
152 -150 -145 0
145 150 152 0
-152 0
153 154 0
155 154 0
-153 -155 -154 0
-149 154 -156 0
149 -154 -156 0
156 -154 -149 0
149 154 156 0
-156 0
157 158 0
159 158 0
-157 -159 -158 0
-153 158 -160 0
153 -158 -160 0
160 -158 -153 0
153 158 160 0
-160 0
151 161 0
155 161 0
159 161 0
162 161 0
-163 0
-157 161 -164 0
157 -161 -164 0
164 -161 -157 0
157 161 164 0
-164 0
165 166 0
167 166 0
-165 -167 -166 0
-18 166 -168 0
18 -166 -168 0
168 -166 -18 0
18 166 168 0
-168 0
165 -169 0
-165 169 0
170 171 0
172 171 0
-170 -172 -171 0
-19 171 -173 0
19 -171 -173 0
173 -171 -19 0
19 171 173 0
-173 0
174 175 0
176 175 0
-174 -176 -175 0
-170 175 -177 0
170 -175 -177 0
177 -175 -170 0
170 175 177 0
-177 0
178 179 0
180 179 0
-178 -180 -179 0
-174 179 -181 0
174 -179 -181 0
181 -179 -174 0
174 179 181 0
-181 0
182 183 0
184 183 0
-182 -184 -183 0
-178 183 -185 0
178 -183 -185 0
185 -183 -178 0
178 183 185 0
-185 0
186 187 0
188 187 0
-186 -188 -187 0
-182 187 -189 0
182 -187 -189 0
189 -187 -182 0
182 187 189 0
-189 0
190 191 0
192 191 0
-190 -192 -191 0
-186 191 -193 0
186 -191 -193 0
193 -191 -186 0
186 191 193 0
-193 0
184 194 0
188 194 0
192 194 0
195 194 0
-196 0
-190 194 -197 0
190 -194 -197 0
197 -194 -190 0
190 194 197 0
-197 0
198 199 0
200 199 0
-198 -200 -199 0
-20 199 -201 0
20 -199 -201 0
201 -199 -20 0
20 199 201 0
-201 0
202 203 0
204 203 0
-202 -204 -203 0
-198 203 -205 0
198 -203 -205 0
205 -203 -198 0
198 203 205 0
-205 0
206 207 0
208 207 0
-206 -208 -207 0
-202 207 -209 0
202 -207 -209 0
209 -207 -202 0
202 207 209 0
-209 0
206 -210 0
-206 210 0
21 -211 0
22 -211 0
23 -211 0
24 -211 0
25 -211 0
26 -211 0
27 -211 0
28 -211 0
29 -211 0
30 -211 0
33 -211 0
-211 -37 0
39 -211 0
42 -211 0
46 -211 0
-211 -49 0
-211 -53 0
-211 -57 0
61 -211 0
64 -211 0
-211 -68 0
-211 -72 0
-211 -76 0
79 -211 0
-211 -83 0
-211 -87 0
-211 -91 0
-211 -95 0
-211 -99 0
-211 -103 0
-211 -107 0
110 -211 0
-211 -115 0
119 -211 0
-211 -123 0
-211 -127 0
131 -211 0
-211 -134 0
-211 -139 0
143 -211 0
-211 -147 0
-211 -151 0
-211 -155 0
159 -211 0
162 -211 0
167 -211 0
-211 -169 0
172 -211 0
-211 -176 0
180 -211 0
-211 -184 0
-211 -188 0
192 -211 0
-211 -195 0
200 -211 0
-211 -204 0
208 -211 0
-211 -210 0
211 0
-212 0
-213 0
-214 0
-215 0
-216 0
-217 0
-218 0
-219 0
